13
1 0 48
2 1 53
3 2 63
4 0 14
4 2 22
5 4 35
6 1 29
6 2 2
6 5 24
7 0 21
7 3 59
7 5 53
7 6 60
8 1 57
8 7 21
9 1 58
9 3 49
9 4 29
9 5 8
9 7 9
10 0 39
10 1 60
10 2 40
10 4 58
10 6 62
10 9 32
11 0 44
11 1 44
11 6 36
11 7 11
11 9 56
11 10 34
12 1 57
12 2 43
12 3 33
12 4 28
12 7 37
12 8 60
12 10 62
12 11 46
